<?xml version = "1.0" standalone="yes"?>
<!-- This file has been generated by DOcplex version 2.23.222  -->
<CPLEXSolution version="1.0">
 <header
   problemName="CVRP"
   objectiveValue="15754.6"
  />
 <variables>
  <variable name="x_0_1" index="0" value="1.00000"/>
  <variable name="x_0_3" index="2" value="1.00000"/>
  <variable name="x_0_4" index="3" value="1.00000"/>
  <variable name="x_0_5" index="4" value="1.00000"/>
  <variable name="x_0_7" index="6" value="1.00000"/>
  <variable name="x_0_8" index="7" value="1.00000"/>
  <variable name="x_0_9" index="8" value="1.00000"/>
  <variable name="x_0_10" index="9" value="1.00000"/>
  <variable name="x_0_12" index="11" value="1.00000"/>
  <variable name="x_0_15" index="14" value="1.00000"/>
  <variable name="x_0_16" index="15" value="1.00000"/>
  <variable name="x_0_19" index="18" value="1.00000"/>
  <variable name="x_0_21" index="20" value="1.00000"/>
  <variable name="x_1_14" index="34" value="1.00000"/>
  <variable name="x_2_0" index="42" value="1.00000"/>
  <variable name="x_3_0" index="63" value="1.00000"/>
  <variable name="x_4_0" index="84" value="1.00000"/>
  <variable name="x_5_0" index="105" value="1.00000"/>
  <variable name="x_6_0" index="126" value="1.00000"/>
  <variable name="x_7_0" index="147" value="1.00000"/>
  <variable name="x_8_20" index="187" value="1.00000"/>
  <variable name="x_9_11" index="199" value="1.00000"/>
  <variable name="x_10_18" index="227" value="1.00000"/>
  <variable name="x_11_0" index="231" value="1.00000"/>
  <variable name="x_12_0" index="252" value="1.00000"/>
  <variable name="x_13_0" index="273" value="1.00000"/>
  <variable name="x_14_6" index="300" value="1.00000"/>
  <variable name="x_15_0" index="315" value="1.00000"/>
  <variable name="x_16_17" index="352" value="1.00000"/>
  <variable name="x_17_0" index="357" value="1.00000"/>
  <variable name="x_18_0" index="378" value="1.00000"/>
  <variable name="x_19_2" index="401" value="1.00000"/>
  <variable name="x_20_0" index="420" value="1.00000"/>
  <variable name="x_21_13" index="454" value="1.00000"/>
  <variable name="u_1" index="462" value="24.00000"/>
  <variable name="u_2" index="463" value="50.00000"/>
  <variable name="u_3" index="464" value="43.00000"/>
  <variable name="u_4" index="465" value="42.00000"/>
  <variable name="u_5" index="466" value="41.00000"/>
  <variable name="u_6" index="467" value="50.00000"/>
  <variable name="u_7" index="468" value="31.00000"/>
  <variable name="u_8" index="469" value="36.00000"/>
  <variable name="u_9" index="470" value="4.00000"/>
  <variable name="u_10" index="471" value="17.00000"/>
  <variable name="u_11" index="472" value="34.00000"/>
  <variable name="u_12" index="473" value="24.00000"/>
  <variable name="u_13" index="474" value="48.00000"/>
  <variable name="u_14" index="475" value="46.00000"/>
  <variable name="u_15" index="476" value="45.00000"/>
  <variable name="u_16" index="477" value="19.00000"/>
  <variable name="u_17" index="478" value="50.00000"/>
  <variable name="u_18" index="479" value="50.00000"/>
  <variable name="u_19" index="480" value="35.00000"/>
  <variable name="u_20" index="481" value="48.00000"/>
  <variable name="u_21" index="482" value="4.00000"/>
 </variables>
</CPLEXSolution>
